\ LP format - for model browsing. Use MPS format to capture full model detail.
Minimize
  4 x0 - 5 x1
Subject To
 constr(0): 2 x0 + 5 x1 >= -10
 constr(1): - 5 x0 + x1 >= -0
 constr(2): - 3 x0 + 3 x1 <= 1
Bounds
 x0 <= 2
 x1 <= 4
End
